1247.0 13681.0 2827.0 
1179.0 13074.0 2901.0 
1179.0 13074.0 2901.0 
1247.0 13808.0 2795.0 
1157.0 13278.0 3066.0 
1179.0 13083.0 2837.0 
1179.0 13083.0 2837.0 
1179.0 13074.0 2901.0 
1171.0 13195.0 3127.0 
1160.0 13140.0 3201.0 
1263.0 13275.0 2825.0 
1138.0 13678.0 3462.0 
1166.0 13261.0 3176.0 
1179.0 13074.0 2901.0 
1179.0 13074.0 2901.0 
1127.0 14096.0 3779.0 
1144.0 13412.0 3160.0 
1259.0 13792.0 2779.0 
1132.0 13870.0 3706.0 
1171.0 13204.0 3063.0 
1162.0 13178.0 3193.0 
1127.0 13961.0 3847.0 
1163.0 13254.0 3179.0 
1154.0 13408.0 3277.0 
1140.0 13648.0 3285.0 
1138.0 13592.0 3879.0 
1142.0 13617.0 3367.0 
1154.0 13255.0 3343.0 
